myproject/instances/20nodes/rnd38_20.tsp
NAME : rnd38_20.tsp
TYPE : TSP
DIMENSION : 20
EDGE_WEIGHT_TYPE : EUC_2D
NODE_COORD_SECTION
1 689 465
2 97 263
3 545 265
4 388 975
5 815 601
6 772 818
7 415 544
8 736 544
9 916 488
10 518 751
11 7 298
12 642 682
13 837 954
14 546 143
15 497 629
16 986 521
17 350 550
18 849 788
19 998 847
20 564 449
