myproject/instances/20nodes/rnd38_20.opt.tour
NAME : rnd38_20.tsp.tsp.optbc.tour
TYPE : TOUR
DIMENSION : 20
TOUR_SECTION
1
20
2
11
8
6
5
15
19
7
16
14
3
13
4
12
9
10
18
17
-1